
Gurobi 8.1.1 (mac64, Python) logging started Thu Sep  5 12:34:23 2019

Academic license - for non-commercial use only
Optimize a model with 1 rows, 3 columns and 3 nonzeros
Model has 2 quadratic constraints
Coefficient statistics:
  Matrix range     [1e+00, 1e+00]
  QMatrix range    [1e+00, 1e+00]
  Objective range  [1e+00, 1e+00]
  Bounds range     [0e+00, 0e+00]
  RHS range        [1e+00, 1e+00]
Presolve time: 0.02s
Presolved: 6 rows, 6 columns, 13 nonzeros
Presolved model has 2 second-order cone constraints
Ordering time: 0.00s

Barrier statistics:
 AA' NZ     : 1.500e+01
 Factor NZ  : 2.100e+01
 Factor Ops : 9.100e+01 (less than 1 second per iteration)
 Threads    : 1

                  Objective                Residual
Iter       Primal          Dual         Primal    Dual     Compl     Time
   0   2.38095238e-01  2.38095238e-01  8.33e-17 4.33e-01  9.23e-02     0s
   1   3.20481543e-01  3.62123302e-01  2.78e-17 1.39e-02  7.95e-03     0s
   2   3.26649101e-01  3.28651430e-01  2.02e-14 5.44e-04  3.46e-04     0s
   3   3.26797051e-01  3.27019441e-01  2.56e-13 5.98e-10  2.78e-05     0s
   4   3.26990986e-01  3.26994814e-01  4.81e-13 3.46e-13  4.78e-07     0s
   5   3.26992304e-01  3.26992876e-01  9.02e-11 3.31e-14  7.15e-08     0s

Barrier solved model in 5 iterations and 0.04 seconds
Optimal objective 3.26992304e-01

Optimize a model with 5 rows, 3 columns and 9 nonzeros
Model has 1 quadratic constraint
Coefficient statistics:
  Matrix range     [1e+00, 1e+00]
  QMatrix range    [2e-05, 2e-04]
  Objective range  [1e-02, 7e-02]
  Bounds range     [0e+00, 0e+00]
  RHS range        [3e-01, 5e-01]
  QRHS range       [1e-09, 1e-09]
Presolve removed 4 rows and 0 columns
Presolve time: 0.01s

Barrier solved model in 0 iterations and 0.01 seconds
Model is infeasible or unbounded
Optimize a model with 5 rows, 3 columns and 9 nonzeros
Model has 1 quadratic constraint
Coefficient statistics:
  Matrix range     [1e+00, 1e+00]
  QMatrix range    [2e-05, 2e-04]
  Objective range  [5e-01, 8e-01]
  Bounds range     [0e+00, 0e+00]
  RHS range        [3e-01, 5e-01]
  QRHS range       [1e-09, 1e-09]
Presolve removed 4 rows and 0 columns
Presolve time: 0.01s

Barrier solved model in 0 iterations and 0.01 seconds
Model is infeasible or unbounded
Optimize a model with 5 rows, 3 columns and 9 nonzeros
Model has 1 quadratic constraint
Coefficient statistics:
  Matrix range     [1e+00, 1e+00]
  QMatrix range    [2e-05, 2e-04]
  Objective range  [5e-01, 8e-01]
  Bounds range     [0e+00, 0e+00]
  RHS range        [3e-01, 5e-01]
  QRHS range       [1e-09, 1e-09]
Presolve removed 4 rows and 0 columns
Presolve time: 0.01s

Barrier solved model in 0 iterations and 0.01 seconds
Model is infeasible or unbounded
Optimize a model with 5 rows, 3 columns and 9 nonzeros
Model has 1 quadratic constraint
Coefficient statistics:
  Matrix range     [1e+00, 1e+00]
  QMatrix range    [2e-05, 2e-04]
  Objective range  [5e-01, 8e-01]
  Bounds range     [0e+00, 0e+00]
  RHS range        [3e-01, 5e-01]
  QRHS range       [1e-09, 1e-09]
Presolve removed 4 rows and 0 columns
Presolve time: 0.01s

Barrier solved model in 0 iterations and 0.01 seconds
Model is infeasible or unbounded
Optimize a model with 5 rows, 3 columns and 9 nonzeros
Model has 1 quadratic constraint
Coefficient statistics:
  Matrix range     [1e+00, 1e+00]
  QMatrix range    [2e-05, 2e-04]
  Objective range  [5e-01, 8e-01]
  Bounds range     [0e+00, 0e+00]
  RHS range        [3e-01, 5e-01]
  QRHS range       [1e-09, 1e-09]
Presolve removed 4 rows and 0 columns
Presolve time: 0.01s

Barrier solved model in 0 iterations and 0.01 seconds
Model is infeasible or unbounded
Optimize a model with 4 rows, 3 columns and 6 nonzeros
Model has 1 quadratic constraint
Coefficient statistics:
  Matrix range     [1e+00, 1e+00]
  QMatrix range    [2e-05, 2e-04]
  Objective range  [5e-01, 8e-01]
  Bounds range     [0e+00, 0e+00]
  RHS range        [3e-01, 5e-01]
  QRHS range       [1e-09, 1e-09]
Presolve removed 3 rows and 0 columns
Presolve time: 0.01s

Barrier solved model in 0 iterations and 0.01 seconds
Model is infeasible or unbounded
Optimize a model with 1 rows, 3 columns and 3 nonzeros
Model has 1 quadratic constraint
Coefficient statistics:
  Matrix range     [1e+00, 1e+00]
  QMatrix range    [2e-05, 2e-04]
  Objective range  [5e-01, 8e-01]
  Bounds range     [0e+00, 0e+00]
  RHS range        [5e-01, 5e-01]
  QRHS range       [1e-09, 1e-09]
Presolve time: 0.01s

Barrier solved model in 0 iterations and 0.01 seconds
Model is infeasible or unbounded
Optimize a model with 0 rows, 3 columns and 0 nonzeros
Model has 1 quadratic constraint
Coefficient statistics:
  Matrix range     [0e+00, 0e+00]
  QMatrix range    [2e-05, 2e-04]
  Objective range  [5e-01, 8e-01]
  Bounds range     [0e+00, 0e+00]
  RHS range        [0e+00, 0e+00]
  QRHS range       [1e-09, 1e-09]
Presolve time: 0.01s
Presolved: 4 rows, 7 columns, 10 nonzeros
Presolved model has 1 second-order cone constraint
Ordering time: 0.00s

Barrier statistics:
 AA' NZ     : 6.000e+00
 Factor NZ  : 1.000e+01
 Factor Ops : 3.000e+01 (less than 1 second per iteration)
 Threads    : 1

                  Objective                Residual
Iter       Primal          Dual         Primal    Dual     Compl     Time
   0   7.34674688e+00 -0.00000000e+00  1.11e-01 1.30e+02  7.27e+00     0s
   1   3.77674443e+00  6.25537811e-03  4.71e-02 1.43e-04  1.45e+00     0s
   2   5.75272712e-03  6.25222234e-03  4.41e-05 1.58e-10  1.91e-03     0s
   3   2.54708533e-03  4.28666559e-03  2.95e-11 1.42e-13  2.17e-04     0s
   4   3.27922178e-03  3.56810631e-03  3.24e-17 7.11e-14  3.61e-05     0s
   5   3.32771213e-03  3.36340900e-03  5.39e-19 2.27e-13  4.46e-06     0s
   6   3.34089810e-03  3.34964755e-03  6.08e-18 1.71e-13  1.09e-06     0s
   7   3.34460049e-03  3.34464813e-03  8.27e-19 5.68e-14  5.96e-09     0s

Barrier solved model in 7 iterations and 0.03 seconds
Optimal objective 3.34460049e-03

Optimize a model with 0 rows, 3 columns and 0 nonzeros
Model has 1 quadratic constraint
Coefficient statistics:
  Matrix range     [0e+00, 0e+00]
  QMatrix range    [2e-05, 2e-04]
  Objective range  [5e-01, 8e-01]
  Bounds range     [0e+00, 0e+00]
  RHS range        [0e+00, 0e+00]
  QRHS range       [1e-09, 1e-09]
Presolve time: 0.01s
Presolved: 4 rows, 7 columns, 10 nonzeros
Presolved model has 1 second-order cone constraint
Ordering time: 0.00s

Barrier statistics:
 AA' NZ     : 6.000e+00
 Factor NZ  : 1.000e+01
 Factor Ops : 3.000e+01 (less than 1 second per iteration)
 Threads    : 1

                  Objective                Residual
Iter       Primal          Dual         Primal    Dual     Compl     Time
   0   7.34674688e+00 -0.00000000e+00  1.11e-01 1.30e+02  7.27e+00     0s
   1   3.77674443e+00  6.25537811e-03  4.71e-02 1.43e-04  1.45e+00     0s
   2   5.75272712e-03  6.25222234e-03  4.41e-05 1.58e-10  1.91e-03     0s
   3   2.54708533e-03  4.28666559e-03  2.95e-11 1.42e-13  2.17e-04     0s
   4   3.27922178e-03  3.56810631e-03  3.24e-17 7.11e-14  3.61e-05     0s
   5   3.32771213e-03  3.36340900e-03  5.39e-19 2.27e-13  4.46e-06     0s
   6   3.34089810e-03  3.34964755e-03  6.08e-18 1.71e-13  1.09e-06     0s
   7   3.34460049e-03  3.34464813e-03  8.27e-19 5.68e-14  5.96e-09     0s

Barrier solved model in 7 iterations and 0.03 seconds
Optimal objective 3.34460049e-03

